(set-logic QF_S)
(set-option :parse-transducers true)
(set-option :produce-models true)
(define-fun-rec toLower ((x String) (y String)) Bool
   (or (and (= x "") (= y ""))
       (and (not (= x "")) (not (= y ""))
           (= (char.code (str.head y))
               (ite (and (<= 65 (char.code (str.head x)))
                       (<= (char.code (str.head x)) 90))
                   (+ (char.code (str.head x)) 32)
                   (char.code (str.head x))))
           (toLower (str.tail x) (str.tail y))))
)
(declare-fun sym205 () String)
(assert (<= (str.len sym205) 11))
(declare-fun sym404 () String)
(assert (<= (str.len sym404) 11))
(declare-fun sym528 () String)
(assert (<= (str.len sym528) 11))
(declare-fun sym606 () String)
(assert (<= (str.len sym606) 11))
(declare-fun sym440 () String)
(assert (<= (str.len sym440) 11))
(declare-fun sym484 () String)
(assert (<= (str.len sym484) 11))
(declare-fun sym562 () String)
(assert (<= (str.len sym562) 11))
(declare-fun sym289 () String)
(assert (<= (str.len sym289) 11))
(declare-fun sym686 () String)
(assert (<= (str.len sym686) 11))
(declare-fun sym642 () String)
(assert (<= (str.len sym642) 11))
(declare-fun sym323 () String)
(assert (<= (str.len sym323) 11))
(declare-fun sym160 () String)
(assert (<= (str.len sym160) 11))
(declare-fun sym414 () String)
(assert (<= (str.len sym414) 11))
(declare-fun sym338 () String)
(assert (<= (str.len sym338) 11))
(declare-fun sym175 () String)
(assert (<= (str.len sym175) 11))
(declare-fun sym494 () String)
(assert (<= (str.len sym494) 11))
(declare-fun sym450 () String)
(assert (<= (str.len sym450) 11))
(declare-fun sym374 () String)
(assert (<= (str.len sym374) 11))
(declare-fun sym254 () String)
(assert (<= (str.len sym254) 11))
(declare-fun sym299 () String)
(assert (<= (str.len sym299) 11))
(declare-fun sym696 () String)
(assert (<= (str.len sym696) 11))
(declare-fun sym652 () String)
(assert (<= (str.len sym652) 11))
(declare-fun sym135 () String)
(assert (<= (str.len sym135) 11))
(declare-fun sym576 () String)
(assert (<= (str.len sym576) 11))
(declare-fun sym215 () String)
(assert (<= (str.len sym215) 11))
(declare-fun sym348 () String)
(assert (<= (str.len sym348) 11))
(declare-fun sym20 () String)
(assert (<= (str.len sym20) 11))
(declare-fun sym504 () String)
(assert (<= (str.len sym504) 11))
(declare-fun sym384 () String)
(assert (<= (str.len sym384) 11))
(declare-fun sym264 () String)
(assert (<= (str.len sym264) 11))
(declare-fun sym662 () String)
(assert (<= (str.len sym662) 11))
(declare-fun sym586 () String)
(assert (<= (str.len sym586) 11))
(declare-fun sym542 () String)
(assert (<= (str.len sym542) 11))
(declare-fun sym225 () String)
(assert (<= (str.len sym225) 11))
(declare-fun sym622 () String)
(assert (<= (str.len sym622) 11))
(declare-fun sym185 () String)
(assert (<= (str.len sym185) 11))
(declare-fun sym460 () String)
(assert (<= (str.len sym460) 11))
(declare-fun sym239 () String)
(assert (<= (str.len sym239) 11))
(declare-fun sym518 () String)
(assert (<= (str.len sym518) 11))
(declare-fun sym430 () String)
(assert (<= (str.len sym430) 11))
(declare-fun sym596 () String)
(assert (<= (str.len sym596) 11))
(declare-fun sym552 () String)
(assert (<= (str.len sym552) 11))
(declare-fun sym113 () String)
(assert (<= (str.len sym113) 11))
(declare-fun sym279 () String)
(assert (<= (str.len sym279) 11))
(declare-fun sym676 () String)
(assert (<= (str.len sym676) 11))
(declare-fun sym313 () String)
(assert (<= (str.len sym313) 11))
(declare-fun sym632 () String)
(assert (<= (str.len sym632) 11))
(declare-fun sym358 () String)
(assert (<= (str.len sym358) 11))
(declare-fun sym150 () String)
(assert (<= (str.len sym150) 11))
(declare-fun sym470 () String)
(assert (<= (str.len sym470) 11))
(declare-fun sym195 () String)
(assert (<= (str.len sym195) 11))
(declare-fun sym394 () String)
(assert (<= (str.len sym394) 11))
(declare-fun L39  () String)
(declare-fun L23  () String)
(declare-fun L35  () String)
(declare-fun L47  () String)
(declare-fun L59  () String)
(declare-fun L31  () String)
(declare-fun L43  () String)
(declare-fun L11  () String)
(declare-fun L55  () String)
(declare-fun L3  () String)
(declare-fun L51  () String)
(declare-fun L102  () String)
(declare-fun L18  () String)
(declare-fun L78  () String)
(declare-fun L14  () String)
(declare-fun L26  () String)
(declare-fun L74  () String)
(declare-fun L8  () String)
(declare-fun L86  () String)
(declare-fun L10  () String)
(declare-fun L54  () String)
(declare-fun L98  () String)
(declare-fun L22  () String)
(declare-fun L66  () String)
(declare-fun L70  () String)
(declare-fun L4  () String)
(declare-fun L82  () String)
(declare-fun L94  () String)
(declare-fun L62  () String)
(declare-fun L0  () String)
(declare-fun L90  () String)
(declare-fun L49  () String)
(declare-fun L17  () String)
(declare-fun L29  () String)
(declare-fun L45  () String)
(declare-fun L57  () String)
(declare-fun L37  () String)
(declare-fun L41  () String)
(declare-fun L85  () String)
(declare-fun L53  () String)
(declare-fun L5  () String)
(declare-fun L33  () String)
(declare-fun L1  () String)
(declare-fun L100  () String)
(declare-fun L16  () String)
(declare-fun L28  () String)
(declare-fun L12  () String)
(declare-fun L24  () String)
(declare-fun L68  () String)
(declare-fun L96  () String)
(declare-fun L20  () String)
(declare-fun L64  () String)
(declare-fun L76  () String)
(declare-fun L6  () String)
(declare-fun L88  () String)
(declare-fun L92  () String)
(declare-fun L72  () String)
(declare-fun L2  () String)
(declare-fun L84  () String)
(declare-fun L80  () String)
(define-fun Alphabet () RegLan 
	(re.* (re.union (str.to_re "A") (str.to_re "B") (str.to_re "C") (str.to_re "D") (str.to_re "E") (str.to_re "F") (str.to_re "G") (str.to_re "H") (str.to_re "I") (str.to_re "J") (str.to_re "K") (str.to_re "L") (str.to_re "M") (str.to_re "N") (str.to_re "O") (str.to_re "P") (str.to_re "Q") (str.to_re "R") (str.to_re "S") (str.to_re "T") (str.to_re "U") (str.to_re "V") (str.to_re "W") (str.to_re "X") (str.to_re "Y") (str.to_re "Z") (str.to_re "a") (str.to_re "b") (str.to_re "c") (str.to_re "d") (str.to_re "e") (str.to_re "f") (str.to_re "g") (str.to_re "h") (str.to_re "i") (str.to_re "j") (str.to_re "k") (str.to_re "l") (str.to_re "m") (str.to_re "n") (str.to_re "o") (str.to_re "p") (str.to_re "q") (str.to_re "r") (str.to_re "s") (str.to_re "t") (str.to_re "u") (str.to_re "v") (str.to_re "w") (str.to_re "x") (str.to_re "y") (str.to_re "z") ))
)
(assert (toLower sym205  L80 ))
(assert (toLower sym113  L84 ))
(assert (toLower sym404  L2 ))
(assert (toLower sym414  L72 ))
(assert (toLower sym542  L92 ))
(assert (toLower sym460  L88 ))
(assert (toLower sym279  L6 ))
(assert (toLower sym662  L76 ))
(assert (toLower sym239  L64 ))
(assert (toLower sym676  L20 ))
(assert (toLower sym150  L96 ))
(assert (toLower sym562  L68 ))
(assert (toLower sym494  L24 ))
(assert (toLower sym622  L12 ))
(assert (toLower sym20  L28 ))
(assert (toLower sym696  L16 ))
(assert (toLower sym504  L100 ))
(assert (toLower "name"  L1 ))
(assert (toLower sym264  L33 ))
(assert (toLower "description"  L5 ))
(assert (toLower sym470  L53 ))
(assert (toLower "database"  L85 ))
(assert (toLower sym160  L41 ))
(assert (toLower sym586  L37 ))
(assert (toLower sym254  L57 ))
(assert (toLower sym338  L45 ))
(assert (toLower sym215  L29 ))
(assert (toLower "field"  L17 ))
(assert (toLower sym528  L49 ))
(assert (toLower sym299  L90 ))
(assert (toLower sym175  L0 ))
(assert (toLower sym323  L62 ))
(assert (toLower sym195  L94 ))
(assert (toLower sym430  L82 ))
(assert (toLower sym686  L4 ))
(assert (toLower sym384  L70 ))
(assert (toLower sym606  L66 ))
(assert (toLower sym225  L22 ))
(assert (toLower sym135  L98 ))
(assert (toLower "option"  L54 ))
(assert (toLower sym596  L10 ))
(assert (toLower sym518  L86 ))
(assert (toLower sym348  L8 ))
(assert (toLower sym358  L74 ))
(assert (toLower sym185  L26 ))
(assert (toLower sym552  L14 ))
(assert (toLower sym289  L78 ))
(assert (toLower sym652  L18 ))
(assert (toLower sym374  L102 ))
(assert (toLower sym450  L51 ))
(assert (toLower "length"  L3 ))
(assert (toLower sym484  L55 ))
(assert (toLower "type"  L11 ))
(assert (toLower sym313  L43 ))
(assert (toLower sym642  L31 ))
(assert (toLower sym632  L59 ))
(assert (toLower sym394  L47 ))
(assert (toLower sym576  L35 ))
(assert (toLower "table"  L23 ))
(assert (toLower sym440  L39 ))

(assert (str.in_re sym394 Alphabet))
(assert (str.in_re sym195 Alphabet))
(assert (str.in_re sym470 Alphabet))
(assert (str.in_re sym150 Alphabet))
(assert (str.in_re sym358 Alphabet))
(assert (str.in_re sym632 Alphabet))
(assert (str.in_re sym313 Alphabet))
(assert (str.in_re sym676 Alphabet))
(assert (str.in_re sym279 Alphabet))
(assert (str.in_re sym113 Alphabet))
(assert (str.in_re sym552 Alphabet))
(assert (str.in_re sym596 Alphabet))
(assert (str.in_re sym430 Alphabet))
(assert (str.in_re sym518 Alphabet))
(assert (str.in_re sym239 Alphabet))
(assert (str.in_re sym460 Alphabet))
(assert (str.in_re sym185 Alphabet))
(assert (str.in_re sym622 Alphabet))
(assert (str.in_re sym225 Alphabet))
(assert (str.in_re sym542 Alphabet))
(assert (str.in_re sym586 Alphabet))
(assert (str.in_re sym662 Alphabet))
(assert (str.in_re sym264 Alphabet))
(assert (str.in_re sym384 Alphabet))
(assert (str.in_re sym504 Alphabet))
(assert (str.in_re sym20 Alphabet))
(assert (str.in_re sym348 Alphabet))
(assert (str.in_re sym215 Alphabet))
(assert (str.in_re sym576 Alphabet))
(assert (str.in_re sym135 Alphabet))
(assert (str.in_re sym652 Alphabet))
(assert (str.in_re sym696 Alphabet))
(assert (str.in_re sym299 Alphabet))
(assert (str.in_re sym254 Alphabet))
(assert (str.in_re sym374 Alphabet))
(assert (str.in_re sym450 Alphabet))
(assert (str.in_re sym494 Alphabet))
(assert (str.in_re sym175 Alphabet))
(assert (str.in_re sym338 Alphabet))
(assert (str.in_re sym414 Alphabet))
(assert (str.in_re sym160 Alphabet))
(assert (str.in_re sym323 Alphabet))
(assert (str.in_re sym642 Alphabet))
(assert (str.in_re sym686 Alphabet))
(assert (str.in_re sym289 Alphabet))
(assert (str.in_re sym562 Alphabet))
(assert (str.in_re sym484 Alphabet))
(assert (str.in_re sym440 Alphabet))
(assert (str.in_re sym606 Alphabet))
(assert (str.in_re sym528 Alphabet))
(assert (str.in_re sym404 Alphabet))
(assert (str.in_re sym205 Alphabet))
(assert (not (= L0 L1 )))
(assert (not (= L2 L3 )))
(assert (not (= L4 L5 )))
(assert (not (= L6 L1 )))
(assert (not (= L8 L5 )))
(assert (not (= L10 L11 )))
(assert (not (= L12 L1 )))
(assert (not (= L14 L5 )))
(assert (not (= L16 L17 )))
(assert (not (= L18 L3 )))
(assert (not (= L20 L1 )))
(assert (= L22 L23 ))
(assert (not (= L24 L5 )))
(assert (not (= L26 L5 )))
(assert (not (= L28 "sql" )))
(assert (not (= L29 L5 )))
(assert (not (= L31 L11 )))
(assert (= L33 L5 ))
(assert (not (= L35 L1 )))
(assert (not (= L37 L5 )))
(assert (not (= L39 L5 )))
(assert (= L41 L5 ))
(assert (not (= L43 L1 )))
(assert (not (= L45 L1 )))
(assert (not (= L47 L11 )))
(assert (= L49 L5 ))
(assert (not (= L51 L11 )))
(assert (= L53 L54 ))
(assert (not (= L55 L1 )))
(assert (not (= L57 L1 )))
(assert (not (= L59 L5 )))
(assert (= L28 "html" ))
(assert (= L62 L5 ))
(assert (= L64 L1 ))
(assert (= L66 L3 ))
(assert (= L68 L11 ))
(assert (not (= L70 L5 )))
(assert (= L72 L54 ))
(assert (= L74 L11 ))
(assert (= L76 L54 ))
(assert (not (= L78 L5 )))
(assert (not (= L80 L1 )))
(assert (not (= L82 L1 )))
(assert (= L84 L85 ))
(assert (not (= L86 L1 )))
(assert (not (= L88 L3 )))
(assert (= L90 L17 ))
(assert (not (= L92 L1 )))
(assert (not (= L94 L23 )))
(assert (not (= L96 L1 )))
(assert (= L98 L1 ))
(assert (= L100 L17 ))
(assert (not (= L102 L1 )))
(check-sat)
(get-model)
(exit)
